p cnf 45 156
4 -3 0
4 -3 0
3 -4 0
-5 2 0
-5 4 0
-2 -4 5 0
-1 -5 -6 0
1 5 -6 0
-1 5 6 0
1 -5 6 0
-7 1 -8 0
7 -1 -8 0
-7 -1 8 0
7 1 8 0
6 -8 -9 0
-6 8 -9 0
6 8 9 0
-6 -8 9 0
-10 -4 0
-10 7 0
4 -7 10 0
11 -9 0
11 -10 0
9 10 -11 0
-13 -3 0
-13 12 0
3 -12 13 0
14 13 0
14 12 0
-13 -12 -14 0
4 -15 -16 0
-4 15 -16 0
4 15 16 0
-4 -15 16 0
17 -14 0
17 16 0
14 -16 -17 0
19 -18 0
19 -7 0
18 7 -19 0
-5 -19 -20 0
5 19 -20 0
-5 19 20 0
5 -19 20 0
-22 21 0
-22 -12 0
-21 12 22 0
-20 -22 -23 0
20 22 -23 0
-20 22 23 0
20 -22 23 0
-25 24 0
-25 24 0
-24 25 0
2 -25 -26 0
-2 25 -26 0
2 25 26 0
-2 -25 26 0
-27 23 0
-27 -26 0
-23 26 27 0
28 -17 0
28 -27 0
17 27 -28 0
-29 -4 0
-29 18 0
4 -18 29 0
3 25 -30 0
-3 -25 -30 0
3 -25 30 0
-3 25 30 0
-31 -30 0
-31 -24 0
30 24 31 0
-32 24 0
-32 -25 0
-24 25 32 0
-21 32 -33 0
21 -32 -33 0
-21 -32 33 0
21 32 33 0
34 -32 0
34 -33 0
32 33 -34 0
31 -34 -35 0
-31 34 -35 0
31 34 35 0
-31 -34 35 0
29 -35 -36 0
-29 35 -36 0
29 35 36 0
-29 -35 36 0
37 1 0
37 12 0
-1 -12 -37 0
38 36 0
38 37 0
-36 -37 -38 0
-18 39 -40 0
18 -39 -40 0
-18 -39 40 0
18 39 40 0
-41 -38 0
-41 -40 0
38 40 41 0
-32 -5 -42 0
32 5 -42 0
-32 5 42 0
32 -5 42 0
-43 41 0
-43 42 0
-41 -42 43 0
28 -43 -44 0
-28 43 -44 0
28 43 44 0
-28 -43 44 0
45 11 0
45 -44 0
-11 44 -45 0
-26 2 -41 -3 0
13 -22 12 0
2 -42 33 0
11 -40 0
-13 -10 -36 14 0
2 21 -8 -23 4 0
-41 30 26 6 0
-13 -28 -16 0
29 -10 0
34 -27 0
-15 18 29 -3 0
-3 -40 -5 0
9 -36 -25 5 0
-40 -25 0
-36 3 -4 0
-41 42 -1 13 0
-26 34 19 0
21 2 -5 0
-30 -28 45 43 0
-33 1 0
22 8 -14 -37 0
-37 36 -9 0
18 -29 2 0
31 -11 -37 12 -25 7 0
18 -21 44 -1 0
-23 -16 32 34 24 0
-17 -15 -34 45 0
-36 43 -27 -1 0
26 43 -22 20 0
-1 -35 -9 0
-44 -8 -32 3 0
7 30 43 -13 -38 0
14 21 42 4 -6 0
-20 30 13 -40 0
-7 18 23 0
26 -7 34 -31 9 -41 0
45 0
